l=6810;
a=5;
setup_costs=[|0,0,0,0,0,
|0,0,0,0,0,
|0,0,0,0,0,
|0,0,0,0,0,
|0,0,0,0,0,
|0,0,0,0,0|];
setup_times=[|1,1,1,1,1,
|1,1,1,1,1,
|1,1,1,1,1,
|1,1,1,1,1,
|1,1,1,1,1,
|0,0,0,0,0|];
m=2;
min_cap=[0,0];
max_cap=[96,48];

initState=[5,3];
s=4;
m_a_s = [|0,0,0,2552,
|4309,4317,4744,6573|];
m_a_e = [|0,0,0,4363,
|4315,4524,5532,6680|];
n=250;
eligible_machine = [{1,2},
{2,1},
{1,2},
{2,1},
{1,2},
{2,1},
{1},
{1},
{1,2},
{2,1},
{1,2},
{1},
{2,1},
{2,1},
{2,1},
{1},
{1},
{1},
{1},
{1,2},
{2},
{2,1},
{1,2},
{2},
{1},
{2},
{2},
{2},
{2,1},
{1,2},
{1,2},
{1,2},
{1,2},
{1,2},
{1},
{2,1},
{1,2},
{1},
{2},
{2},
{1,2},
{2},
{2,1},
{1},
{2,1},
{1,2},
{2,1},
{1},
{1,2},
{1},
{1,2},
{2,1},
{2},
{2},
{1,2},
{1,2},
{1,2},
{1,2},
{2,1},
{1,2},
{2,1},
{2},
{2,1},
{1,2},
{2},
{2},
{1},
{2,1},
{2,1},
{2,1},
{1},
{2,1},
{1,2},
{2,1},
{1,2},
{1},
{2,1},
{1},
{2},
{2,1},
{1,2},
{2,1},
{2,1},
{2},
{1},
{2,1},
{1},
{2,1},
{2},
{1},
{2},
{1},
{2,1},
{1},
{1},
{1},
{2,1},
{1},
{2,1},
{1,2},
{1,2},
{2},
{1},
{1,2},
{1},
{1,2},
{2},
{1,2},
{2,1},
{1},
{2},
{2},
{2,1},
{2,1},
{1},
{2,1},
{2},
{1,2},
{2,1},
{1},
{2,1},
{1},
{2,1},
{1},
{1},
{2,1},
{1,2},
{1,2},
{1,2},
{2,1},
{2,1},
{1,2},
{2},
{2,1},
{2,1},
{2},
{2,1},
{2},
{1},
{2,1},
{1},
{1,2},
{1,2},
{2,1},
{2,1},
{1,2},
{2},
{2,1},
{2},
{2},
{2},
{2,1},
{2,1},
{1,2},
{1},
{1},
{2,1},
{1},
{1},
{1,2},
{2},
{2,1},
{1,2},
{2},
{2,1},
{2,1},
{1,2},
{1},
{2},
{1},
{2,1},
{2},
{2},
{1},
{2,1},
{1},
{2},
{2},
{1,2},
{1,2},
{2},
{2},
{1,2},
{2,1},
{2,1},
{2},
{1},
{1},
{1},
{2,1},
{2},
{1,2},
{1,2},
{2,1},
{2,1},
{1,2},
{2},
{1,2},
{2,1},
{2,1},
{2,1},
{1},
{1,2},
{2},
{1},
{2},
{2},
{1},
{1},
{2,1},
{2},
{2},
{2},
{1,2},
{2,1},
{2},
{1},
{2},
{2},
{1,2},
{1},
{2,1},
{2,1},
{2,1},
{1},
{2,1},
{1,2},
{2,1},
{2,1},
{2},
{1},
{1},
{2,1},
{2,1},
{2},
{1,2},
{2},
{2,1},
{1},
{1},
{1,2},
{2},
{1},
{2,1},
{1},
{2,1},
{2},
{1,2},
{2},
{1,2}];
earliest_start=[48,59,99,22,52,123,41,68,16,135,58,72,15,104,6,113,108,142,8,114,49,34,56,85,88,21,75,13,57,68,131,19,23,114,74,100,118,53,49,61,36,126,121,37,31,6,80,59,46,107,54,30,52,110,39,14,2,14,77,31,47,28,11,90,3,39,49,44,29,49,137,55,93,89,77,66,56,18,53,81,84,15,109,92,14,100,110,56,74,60,97,104,118,18,13,8,114,30,33,135,100,36,30,140,113,141,80,105,32,116,100,126,104,138,89,32,61,61,76,46,72,136,112,111,94,33,79,74,76,69,94,25,128,61,124,47,128,112,122,16,19,4,24,101,103,113,142,122,71,124,89,53,97,129,62,107,67,61,45,80,61,6,29,106,21,75,141,43,14,42,46,91,81,60,26,67,112,10,8,124,33,99,2,94,122,40,70,141,141,16,123,67,67,42,97,13,118,60,80,27,114,99,107,29,77,140,114,37,103,137,138,57,52,63,46,104,4,77,126,123,4,0,44,141,61,122,23,39,105,13,92,51,72,123,9,77,135,115,17,124,69,33,38,3,21,66,14,4,139,136];
latest_end=[73,95,108,37,78,133,52,101,20,156,79,87,62,123,31,142,117,143,34,128,60,43,68,109,92,23,86,47,60,98,143,43,37,118,82,109,136,93,70,80,54,128,141,41,62,35,81,86,57,113,60,48,88,135,49,17,6,22,85,63,63,64,21,99,13,42,57,76,47,61,185,80,118,102,104,80,80,26,54,120,90,20,134,93,27,119,126,93,75,83,101,144,157,40,27,32,116,63,53,175,103,63,38,150,120,147,99,143,69,123,115,140,130,142,101,61,65,72,98,68,76,143,123,115,107,38,101,105,95,82,129,49,167,83,144,55,137,131,123,44,21,23,56,112,106,146,180,149,95,150,102,73,114,170,64,137,80,77,72,100,78,20,52,117,29,101,150,47,27,85,51,123,113,64,70,99,121,23,17,142,46,142,25,105,139,42,74,180,145,22,143,89,95,58,115,24,132,74,113,42,120,103,118,32,86,156,149,47,113,146,139,89,69,80,72,111,33,88,129,137,26,13,62,142,67,140,39,42,113,42,104,68,90,136,22,102,149,132,28,137,78,47,49,12,25,89,21,18,143,165];
min_time=[8,9,3,5,10,5,5,8,4,6,6,5,10,5,6,6,3,1,9,8,10,3,4,7,3,1,4,8,1,9,3,7,4,1,6,8,7,10,7,6,7,1,5,1,10,7,1,9,4,5,2,8,9,6,3,3,4,2,3,10,9,9,5,4,6,3,3,8,6,3,10,9,9,7,8,6,9,6,1,8,2,5,10,1,4,6,4,10,1,5,2,10,8,10,7,8,2,8,8,9,3,8,3,5,5,2,10,9,9,3,5,6,7,2,3,10,3,8,6,5,1,3,4,3,4,3,7,10,10,8,10,6,9,6,10,4,3,4,1,6,2,7,7,5,1,8,9,6,5,9,4,6,5,9,2,10,5,8,7,10,6,10,5,4,2,10,9,4,3,10,2,8,8,2,9,10,8,7,4,8,6,9,7,3,7,1,2,8,1,5,7,8,7,6,6,5,8,3,8,8,3,3,3,2,2,6,9,10,5,9,1,7,5,5,10,3,7,7,3,6,5,8,4,1,4,6,5,1,3,6,4,8,4,3,3,9,5,7,6,5,2,6,3,4,3,6,2,6,3,6];
max_time=[9,10,8,6,10,6,8,9,6,10,10,10,10,6,8,8,7,7,10,8,10,9,5,7,7,2,5,10,9,10,4,8,10,8,6,9,8,10,9,10,7,1,7,2,10,10,10,10,9,7,10,8,10,10,4,5,4,2,7,10,10,9,9,8,7,9,4,10,10,10,10,10,9,7,10,9,9,7,4,8,9,10,10,2,6,7,4,10,2,5,4,10,9,10,8,8,4,8,10,9,6,9,4,10,10,9,10,10,10,6,6,10,8,2,10,10,10,10,9,8,1,9,10,6,9,3,8,10,10,10,10,8,9,10,10,5,8,6,8,9,8,8,10,9,8,9,10,9,9,9,6,6,10,10,7,10,10,8,7,10,9,10,9,8,7,10,9,9,6,10,6,9,9,10,9,10,10,9,6,10,6,9,9,4,10,3,3,8,5,10,8,10,9,10,10,10,8,10,8,8,10,3,9,7,7,10,10,10,10,9,4,10,5,10,10,9,8,10,8,10,10,10,7,10,5,9,9,10,7,6,6,9,8,7,4,10,10,7,9,10,6,9,7,10,8,9,5,6,6,9];
size=[4,4,4,2,1,5,4,4,3,4,1,2,5,3,1,5,2,4,2,3,4,3,5,3,3,5,3,3,1,1,4,2,5,1,3,5,4,3,2,5,5,2,3,5,1,3,5,2,3,4,3,1,5,5,5,1,3,3,3,3,2,2,4,3,4,2,1,4,5,4,2,3,3,2,5,1,2,4,1,3,4,1,2,4,5,1,1,5,1,3,1,2,1,5,4,2,4,1,4,2,2,1,1,2,4,5,2,3,4,3,1,1,5,3,1,5,3,4,3,5,3,5,3,2,1,3,4,5,2,4,3,2,2,1,2,5,3,1,3,3,4,5,4,2,3,4,1,2,1,2,3,1,4,1,3,4,1,1,4,3,2,3,5,5,4,2,4,3,2,2,4,4,3,3,3,1,1,5,3,2,1,2,2,5,5,1,1,1,1,1,2,1,4,4,2,4,4,3,1,3,1,4,4,1,2,3,1,4,3,4,3,5,5,1,1,1,3,3,5,4,2,4,1,5,3,2,1,2,4,1,2,2,1,1,2,3,3,5,1,4,1,2,2,3,1,5,1,2,1,5];
attribute=[2,3,5,2,4,1,5,1,4,4,5,1,2,1,1,1,3,2,2,5,5,5,3,1,3,5,1,5,4,4,5,2,3,4,3,5,1,3,2,4,3,4,5,4,1,1,3,5,4,2,2,4,3,3,1,1,3,2,1,5,4,1,4,5,5,4,5,4,1,4,4,4,4,5,2,1,4,3,2,4,1,2,2,4,4,2,3,4,1,1,1,4,3,3,4,4,5,4,4,4,4,4,3,4,1,4,4,2,2,2,4,1,2,4,5,4,2,3,4,1,4,1,1,2,1,5,5,5,5,3,3,3,3,3,1,5,2,1,1,2,2,2,5,3,2,1,4,5,2,4,4,3,2,1,4,5,3,1,2,2,4,1,1,1,2,2,3,2,2,4,3,2,1,5,2,3,5,4,3,1,4,5,1,5,4,5,1,5,1,5,4,3,4,1,5,3,3,4,2,4,2,2,1,4,2,4,2,2,5,1,4,5,4,1,3,2,3,2,4,2,4,2,1,3,1,1,3,2,3,4,1,1,4,3,5,1,3,1,3,3,4,4,4,3,2,3,2,2,3,1];

upper_bound_integer_objective=157500;
mult_factor_total_runtime=4;
mult_factor_finished_toolate=600;
mult_factor_total_setuptimes=0;
mult_factor_total_setupcosts=6;
running_time_bound=1417;
min_duration=1;
max_duration=10;
max_setup_time=1;
max_setup_cost=0;
